sat
(:added-eqs                       3240881
 :arith-eq-adapter                3512
 :arith-bound-propagations-lp     569441
 :arith-branch                    565
 :arith-conflicts                 43873
 :arith-cube-calls                260
 :arith-diseq                     1326789
 :arith-fixed-eqs                 825502
 :arith-gcd-calls                 5082
 :arith-gcd-conflict              7
 :arith-gomory-cuts               313
 :arith-grobner-calls             5664
 :arith-grobner-conflicts         1564
 :arith-hnf-calls                 9
 :arith-horner-calls              1490
 :arith-horner-conflicts          45
 :arith-horner-cross-nested-forms 164398
 :arith-lower                     1696433
 :arith-make-feasible             533126
 :arith-max-columns               3262
 :arith-max-rows                  1974
 :arith-nla-add-bounds            1444
 :arith-nla-lemmas                20619
 :arith-nla-propagate-bounds      7840
 :arith-nla-propagate-eq          907959
 :arith-nra-calls                 1991
 :arith-offset-eqs                860300
 :arith-patches                   5075
 :arith-patches-success           4079
 :arith-upper                     1989075
 :binary-propagations             8766105
 :cnf-encoding-aux-vars           8
 :conflicts                       29559
 :decisions                       3175889
 :del-clause                      86092
 :elim-unconstrained              12
 :final-checks                    12344
 :max-memory                      373.38
 :memory                          115.61
 :minimized-lits                  42043
 :mk-bool-var                     65053
 :mk-clause                       302338
 :mk-clause-binary                23983
 :nlsat-conflicts                 159705
 :nlsat-decisions                 2360
 :nlsat-propagations              8840644
 :nlsat-restarts                  3
 :nlsat-stages                    4244037
 :num-allocs                      3323046546909.00
 :num-checks                      2
 :propagations                    15584003
 :restarts                        166
 :rlimit-count                    191687275
 :solve-eqs-elim-vars             39
 :solve-eqs-steps                 1216
 :time                            112.71
 :total-time                      112.71)
